c A SAT instance generated from a 3-CNF formula that had 39 clauses and 13 variables
p cnf 13 39
9 -11 -10 0
6 1 -10 0
-13 9 12 0
8 -10 -6 0
3 5 10 0
7 4 1 0
-6 10 9 0
-5 -7 3 0
-4 -3 -5 0
-2 -12 10 0
-11 -13 6 0
1 -7 -13 0
-11 -12 1 0
3 13 8 0
1 -7 -5 0
-5 10 -2 0
6 8 -1 0
-11 -7 -3 0
11 -9 7 0
7 2 -3 0
-9 -5 3 0
7 9 12 0
-1 -8 11 0
-8 6 -13 0
9 -5 -7 0
8 4 9 0
-6 -7 2 0
10 9 -5 0
-9 1 12 0
-4 -10 8 0
11 8 -10 0
-7 -13 -3 0
-5 7 -8 0
-10 -6 1 0
-5 4 6 0
-13 -11 -1 0
13 8 4 0
3 -6 -5 0
-4 11 6 0
